48 48 50 50 43 56 51 48 42 46 43 50 48 52 57 55 49 51 50 48 60 49 57 48 59 57 42 48 51 42 45 54 60 46 45 57 49 50 51 51 31 52 54 55 54 36 46 48 58 50 47 50 56 52 51 47 52 47 49 52 56 50 53 52 51 47 49 46 58 53 53 53 48 48 50 52 46 44 61 51 53 57 39 55 48 54 48 49 47 47 46 52 49 49 58 45 52 48 52 58 